16 32
1 2 2
1 5 2
2 3 3
2 6 4
3 4 1
3 7 2
4 8 5
5 6 1
5 9 4
6 7 2
6 10 4
7 8 4
7 11 3
8 12 2
9 10 4
9 13 1
10 11 1
10 14 3
11 12 4
11 15 1
12 16 1
13 14 3
14 15 1
15 16 2
1 13 5
2 14 3
3 15 5
4 16 2
1 4 4
5 8 3
9 12 1
13 16 3
